
Gurobi 9.0.1 (linux64) logging started Thu Apr 30 23:06:24 2020

Gurobi Optimizer version 9.0.1 build v9.0.1rc0 (linux64)
Optimize a model with 32222 rows, 27380 columns and 603960 nonzeros
Model fingerprint: 0xaf0960e2
Variable types: 0 continuous, 27380 integer (27342 binary)
Coefficient statistics:
  Matrix range     [1e+00, 2e+01]
  Objective range  [2e+00, 1e+02]
  Bounds range     [1e+00, 1e+00]
  RHS range        [1e+00, 1e+00]

User MIP start produced solution with objective 1132 (0.94s)
Loaded user MIP start with objective 1132

Presolve removed 14186 rows and 9384 columns (presolve time = 5s) ...
Presolve removed 14228 rows and 9444 columns (presolve time = 10s) ...
Presolve removed 14228 rows and 9444 columns
Presolve time: 10.82s
Presolved: 17994 rows, 17936 columns, 501120 nonzeros
Variable types: 0 continuous, 17936 integer (17900 binary)

Root simplex log...

Iteration    Objective       Primal Inf.    Dual Inf.      Time
       0    0.0000000e+00   1.940000e+02   0.000000e+00     13s
    1883    5.2733340e+02   2.012520e+03   0.000000e+00     15s
    3626    5.3692346e+02   2.379787e+04   0.000000e+00     20s
    5037    5.3994656e+02   5.957582e+04   0.000000e+00     25s
    6365    5.4439895e+02   1.088955e+04   0.000000e+00     30s
    7444    5.4757275e+02   2.087420e+04   0.000000e+00     35s
    8606    5.5310888e+02   7.555106e+03   0.000000e+00     40s
    9685    5.5479491e+02   8.604728e+03   0.000000e+00     45s
   10764    5.5728592e+02   9.526058e+03   0.000000e+00     50s
   11760    5.5885923e+02   2.178910e+04   0.000000e+00     55s
   12756    5.5955894e+02   2.831534e+03   0.000000e+00     60s
   13752    5.6033477e+02   3.638362e+04   0.000000e+00     65s
   14582    5.6139106e+02   2.425507e+03   0.000000e+00     70s
   15495    5.6183654e+02   4.960116e+03   0.000000e+00     75s
   16325    5.6313501e+02   3.624240e+03   0.000000e+00     80s
   17155    5.6406274e+02   5.076694e+03   0.000000e+00     85s
   17996    5.6462595e+02   2.547640e+03   0.000000e+00     90s
   18743    5.6531655e+02   2.039113e+03   0.000000e+00     95s
Warning: Markowitz tolerance tightened to 0.03125
   19490    5.6586692e+02   1.214384e+03   0.000000e+00    100s
   20148    5.6623831e+02   2.567211e+03   0.000000e+00    105s
   20889    5.6694599e+02   1.153834e+03   0.000000e+00    111s
   21636    5.6737143e+02   5.556000e+02   0.000000e+00    116s
   22217    5.6765093e+02   4.899654e+02   0.000000e+00    120s
   22872    5.6795699e+02   9.918554e+02   0.000000e+00    126s
   23530    5.6826822e+02   1.675354e+02   0.000000e+00    131s
   24025    5.6844366e+02   5.277901e+02   0.000000e+00    135s
   24631    5.6854882e+02   5.405104e-01   0.000000e+00    141s
   24664    5.6854926e+02   0.000000e+00   0.000000e+00    141s

Root relaxation: objective 5.685493e+02, 24664 iterations, 129.03 seconds

    Nodes    |    Current Node    |     Objective Bounds      |     Work
 Expl Unexpl |  Obj  Depth IntInf | Incumbent    BestBd   Gap | It/Node Time

     0     0  568.54926    0 2617 1132.00000  568.54926  49.8%     -  150s
     0     0  597.33665    0 2566 1132.00000  597.33665  47.2%     -  258s
     0     0  600.04897    0 2596 1132.00000  600.04897  47.0%     -  301s
     0     0  600.11660    0 2609 1132.00000  600.11660  47.0%     -  308s
     0     0  600.11742    0 2613 1132.00000  600.11742  47.0%     -  309s
     0     0  614.28250    0 2625 1132.00000  614.28250  45.7%     -  422s
     0     0  619.12457    0 2642 1132.00000  619.12457  45.3%     -  477s
     0     0  619.32309    0 2643 1132.00000  619.32309  45.3%     -  488s
     0     0  619.33488    0 2647 1132.00000  619.33488  45.3%     -  492s
     0     0  619.33568    0 2647 1132.00000  619.33568  45.3%     -  494s
     0     0  630.90144    0 2703 1132.00000  630.90144  44.3%     -  644s
     0     0  631.31150    0 2692 1132.00000  631.31150  44.2%     -  673s
     0     0  631.38346    0 2690 1132.00000  631.38346  44.2%     -  681s
     0     0  631.38655    0 2688 1132.00000  631.38655  44.2%     -  684s
     0     0  635.32099    0 2716 1132.00000  635.32099  43.9%     -  800s
     0     0  636.13134    0 2754 1132.00000  636.13134  43.8%     -  843s
     0     0  636.22850    0 2731 1132.00000  636.22850  43.8%     -  852s
     0     0  636.34239    0 2726 1132.00000  636.34239  43.8%     -  862s
     0     0  636.38918    0 2737 1132.00000  636.38918  43.8%     -  869s
     0     0  636.39776    0 2735 1132.00000  636.39776  43.8%     -  872s
     0     0  638.56929    0 2721 1132.00000  638.56929  43.6%     -  933s
     0     0  638.78864    0 2753 1132.00000  638.78864  43.6%     -  971s
     0     0  638.82008    0 2744 1132.00000  638.82008  43.6%     -  976s
     0     0  638.83221    0 2736 1132.00000  638.83221  43.6%     -  980s
     0     0  639.95461    0 2756 1132.00000  639.95461  43.5%     - 1023s
     0     0  640.12994    0 2742 1132.00000  640.12994  43.5%     - 1072s
     0     0  640.17299    0 2765 1132.00000  640.17299  43.4%     - 1079s
     0     0  640.18491    0 2773 1132.00000  640.18491  43.4%     - 1083s
     0     0  640.87269    0 2776 1132.00000  640.87269  43.4%     - 1129s
     0     0  640.97191    0 2800 1132.00000  640.97191  43.4%     - 1143s
     0     0  640.97801    0 2787 1132.00000  640.97801  43.4%     - 1147s
     0     0  641.58028    0 2790 1132.00000  641.58028  43.3%     - 1185s
     0     0  641.66538    0 2805 1132.00000  641.66538  43.3%     - 1240s
     0     0  641.68244    0 2817 1132.00000  641.68244  43.3%     - 1246s
     0     0  642.10658    0 2780 1132.00000  642.10658  43.3%     - 1281s
     0     0  642.15304    0 2792 1132.00000  642.15304  43.3%     - 1291s
     0     0  642.16558    0 2788 1132.00000  642.16558  43.3%     - 1296s
     0     0  642.41760    0 2786 1132.00000  642.41760  43.2%     - 1322s
     0     0  642.43301    0 2792 1132.00000  642.43301  43.2%     - 1330s
     0     0  643.17828    0 2788 1132.00000  643.17828  43.2%     - 1368s
     0     0  643.33095    0 2777 1132.00000  643.33095  43.2%     - 1388s
     0     0  643.35571    0 2781 1132.00000  643.35571  43.2%     - 1394s
     0     0  643.36860    0 2789 1132.00000  643.36860  43.2%     - 1400s
     0     0  643.75335    0 2775 1132.00000  643.75335  43.1%     - 1434s
     0     0  643.80934    0 2786 1132.00000  643.80934  43.1%     - 1449s
     0     0  643.83630    0 2787 1132.00000  643.83630  43.1%     - 1457s
     0     0  643.84502    0 2798 1132.00000  643.84502  43.1%     - 1461s
     0     0  644.38352    0 2795 1132.00000  644.38352  43.1%     - 1498s
     0     0  644.46842    0 2801 1132.00000  644.46842  43.1%     - 1516s
     0     0  644.47989    0 2803 1132.00000  644.47989  43.1%     - 1521s
     0     0  645.16860    0 2786 1132.00000  645.16860  43.0%     - 1561s
     0     0  645.31238    0 2786 1132.00000  645.31238  43.0%     - 1579s
     0     0  645.33481    0 2790 1132.00000  645.33481  43.0%     - 1586s
     0     0  645.33720    0 2801 1132.00000  645.33720  43.0%     - 1589s
     0     0  645.73058    0 2784 1132.00000  645.73058  43.0%     - 1618s
     0     0  645.77526    0 2809 1132.00000  645.77526  43.0%     - 1632s
     0     0  645.78751    0 2811 1132.00000  645.78751  43.0%     - 1637s
     0     0  645.95988    0 2795 1132.00000  645.95988  42.9%     - 1663s
     0     0  645.98482    0 2799 1132.00000  645.98482  42.9%     - 1675s
     0     0  645.99991    0 2814 1132.00000  645.99991  42.9%     - 1681s
     0     0  646.39123    0 2789 1132.00000  646.39123  42.9%     - 1717s
     0     0  646.45863    0 2808 1132.00000  646.45863  42.9%     - 1732s
     0     0  646.49047    0 2814 1132.00000  646.49047  42.9%     - 1740s
     0     0  646.50047    0 2815 1132.00000  646.50047  42.9%     - 1745s
     0     0  646.77548    0 2794 1132.00000  646.77548  42.9%     - 1777s
     0     0  646.83010    0 2785 1132.00000  646.83010  42.9%     - 1788s
     0     0  646.85876    0 2799 1132.00000  646.85876  42.9%     - 1795s
     0     0  646.87395    0 2813 1132.00000  646.87395  42.9%     - 1801s
     0     0  647.09149    0 2808 1132.00000  647.09149  42.8%     - 1829s
     0     0  647.11240    0 2831 1132.00000  647.11240  42.8%     - 1840s
     0     0  647.17675    0 2817 1132.00000  647.17675  42.8%     - 1859s
     0     0  647.17675    0 2814 1132.00000  647.17675  42.8%     - 1881s
     0     2  647.18170    0 2812 1132.00000  647.18170  42.8%     - 2098s
     1     3  652.79414    1 2607 1132.00000  647.18183  42.8% 19223 2268s
     2     4  649.18584    1 2765 1132.00000  649.18584  42.7% 12624 2330s
     3     5  649.81615    2 2792 1132.00000  649.18584  42.7%  9351 2357s
     4     6  698.97895    2 2470 1132.00000  649.81628  42.6% 22000 2879s
     5     7  650.04622    3 2770 1132.00000  649.81628  42.6% 17816 2889s
     6     8  650.18548    4 2754 1132.00000  649.81628  42.6% 15030 2900s
     7     9  677.94996    4 2494 1132.00000  649.81628  42.6% 19076 3243s
     8    10  650.44888    5 2769 1132.00000  649.81628  42.6% 16879 3253s
     9    11  650.54272    6 2782 1132.00000  649.81628  42.6% 15104 3260s
    10    12  650.59672    7 2785 1132.00000  649.81628  42.6% 13692 3266s
    11    13  650.85321    8 2791 1132.00000  649.81628  42.6% 12666 3280s
    12    14  650.92058    9 2783 1132.00000  649.81628  42.6% 11722 3287s
    13    15  651.02388   10 2764 1132.00000  649.81628  42.6% 10931 3295s
    14    16  651.07457   11 2769 1132.00000  649.81628  42.6% 10225 3301s
    15    17  651.26775   12 2767 1132.00000  649.81628  42.6%  9686 3314s
    16    18  693.91619   12 2403 1132.00000  649.81628  42.6% 10635 3477s
    17    19  651.36475   13 2769 1132.00000  649.81628  42.6% 10077 3484s

Cutting planes:
  Cover: 1
  MIR: 161
  StrongCG: 12
  Zero half: 40
  Mod-K: 12
  RLT: 981

Explored 18 nodes (311136 simplex iterations) in 3600.02 seconds
Thread count was 1 (of 40 available processors)

Solution count 1: 1132 

Time limit reached
Best objective 1.132000000000e+03, best bound 6.500000000000e+02, gap 42.5795%

User-callback calls 13730, time in user-callback 0.03 sec
